\ Model Cl_50_Ins_8.lp
\ LP format - for model browsing. Use MPS format to capture full model detail.
Maximize
 
Subject To
 obj1: y[0] = 0
 obj2: y[1] = 0
 obj1_Exp: - y[0] + 97 x[0] + 97 x[1] + 96 x[2] + 94 x[3] + 94 x[4]
   + 92 x[5] + 90 x[6] + 88 x[7] + 88 x[8] + 87 x[9] + 82 x[10] + 82 x[11]
   + 81 x[12] + 78 x[13] + 77 x[14] + 77 x[15] + 71 x[16] + 71 x[17]
   + 71 x[18] + 70 x[19] + 65 x[20] + 64 x[21] + 55 x[22] + 53 x[23]
   + 53 x[24] + 48 x[25] + 46 x[26] + 46 x[27] + 42 x[28] + 40 x[29]
   + 38 x[30] + 37 x[31] + 36 x[32] + 34 x[33] + 31 x[34] + 29 x[35]
   + 28 x[36] + 26 x[37] + 25 x[38] + 23 x[39] + 23 x[40] + 18 x[41]
   + 13 x[42] + 8 x[43] + 8 x[44] + 8 x[45] + 6 x[46] + 5 x[47] + 4 x[48]
   + 2 x[49] = 0
 obj2_Exp: - y[1] + 79 x[0] + 44 x[1] + 79 x[2] + 15 x[3] + 21 x[4]
   + 18 x[5] + 67 x[6] + 50 x[7] + 69 x[8] + 40 x[9] + 25 x[10] + 15 x[11]
   + 62 x[12] + 30 x[13] + 75 x[14] + 46 x[15] + 50 x[16] + 16 x[17]
   + 34 x[18] + 70 x[19] + 68 x[20] + 34 x[21] + 83 x[22] + 51 x[23]
   + 13 x[24] + 81 x[25] + 82 x[26] + 45 x[27] + 85 x[28] + 71 x[29]
   + 69 x[30] + 35 x[31] + 96 x[32] + 10 x[33] + 70 x[34] + 49 x[35]
   + 58 x[36] + 36 x[37] + 23 x[38] + 45 x[39] + 81 x[40] + 56 x[41]
   + 90 x[42] + 41 x[43] + 60 x[44] + 26 x[45] + 65 x[46] + 8 x[47]
   + 47 x[48] + 81 x[49] = 0
 Budget: 107 x[0] + 107 x[1] + 106 x[2] + 104 x[3] + 104 x[4] + 102 x[5]
   + 100 x[6] + 98 x[7] + 98 x[8] + 97 x[9] + 92 x[10] + 92 x[11]
   + 91 x[12] + 88 x[13] + 87 x[14] + 87 x[15] + 81 x[16] + 81 x[17]
   + 81 x[18] + 80 x[19] + 75 x[20] + 74 x[21] + 65 x[22] + 63 x[23]
   + 63 x[24] + 58 x[25] + 56 x[26] + 56 x[27] + 52 x[28] + 50 x[29]
   + 48 x[30] + 47 x[31] + 46 x[32] + 44 x[33] + 41 x[34] + 39 x[35]
   + 38 x[36] + 36 x[37] + 35 x[38] + 33 x[39] + 33 x[40] + 28 x[41]
   + 23 x[42] + 18 x[43] + 18 x[44] + 18 x[45] + 16 x[46] + 15 x[47]
   + 14 x[48] + 12 x[49] <= 1297
Bounds
Binaries
 x[0] x[1] x[2] x[3] x[4] x[5] x[6] x[7] x[8] x[9] x[10] x[11] x[12] x[13]
 x[14] x[15] x[16] x[17] x[18] x[19] x[20] x[21] x[22] x[23] x[24] x[25]
 x[26] x[27] x[28] x[29] x[30] x[31] x[32] x[33] x[34] x[35] x[36] x[37]
 x[38] x[39] x[40] x[41] x[42] x[43] x[44] x[45] x[46] x[47] x[48] x[49]
Generals
 y[0] y[1]
End
